
Gurobi 12.0.3 (linux64) logging started Mon Aug 18 02:13:04 2025

Set parameter LogFile to value "logs/instance-11.txt"
Gurobi Optimizer version 12.0.3 build v12.0.3rc0 (linux64 - "Ubuntu 24.04.3 LTS")

CPU model: Intel(R) Core(TM) i5-8250U CPU @ 1.60GHz, instruction set [SSE2|AVX|AVX2]
Thread count: 4 physical cores, 8 logical processors, using up to 8 threads

Non-default parameters:
TimeLimit  900

Optimize a model with 59900 rows, 20100 columns and 159290 nonzeros
Model fingerprint: 0xeac69661
Variable types: 19900 continuous, 200 integer (200 binary)
Coefficient statistics:
  Matrix range     [1e+00, 1e+00]
  Objective range  [1e+00, 1e+01]
  Bounds range     [1e+00, 1e+00]
  RHS range        [1e+00, 1e+00]
Found heuristic solution: objective 1058.0000000
Presolve removed 31272 rows and 980 columns
Presolve time: 0.84s
Presolved: 28628 rows, 19120 columns, 86258 nonzeros
Variable types: 18920 continuous, 200 integer (200 binary)

Root simplex log...

Iteration    Objective       Primal Inf.    Dual Inf.      Time
   16454    2.6353500e+04   4.132000e+03   0.000000e+00      5s
   16668    2.6231000e+04   0.000000e+00   0.000000e+00      5s

Root relaxation: objective 2.623100e+04, 16668 iterations, 4.26 seconds (2.66 work units)

    Nodes    |    Current Node    |     Objective Bounds      |     Work
 Expl Unexpl |  Obj  Depth IntInf | Incumbent    BestBd   Gap | It/Node Time

     0     0 26231.0000    0  200 1058.00000 26231.0000  2379%     -    5s
H    0     0                    1100.0000000 26231.0000  2285%     -    5s
H    0     0                    1102.0000000 26231.0000  2280%     -    6s
H    0     0                    1714.0000000 25542.5000  1390%     -   11s
     0     0 25542.5000    0  200 1714.00000 25542.5000  1390%     -   11s
H    0     0                    3394.0000000 25542.0000   653%     -   12s
H    0     0                    3428.0000000 23683.0000   591%     -   17s
     0     0 23683.0000    0  200 3428.00000 23683.0000   591%     -   17s
     0     0 23110.0000    0  200 3428.00000 23110.0000   574%     -   21s
     0     0 22302.5000    0  200 3428.00000 22302.5000   551%     -   30s
     0     0 21677.5000    0  200 3428.00000 21677.5000   532%     -   44s
     0     0 20535.7659    0  200 3428.00000 20535.7659   499%     -   73s
     0     0 20030.1777    0  200 3428.00000 20030.1777   484%     -   91s
     0     0 19994.4167    0  200 3428.00000 19994.4167   483%     -   96s
     0     0 19993.8333    0  200 3428.00000 19993.8333   483%     -   96s
     0     0 19993.6667    0  200 3428.00000 19993.6667   483%     -   97s
     0     0 19039.1089    0  200 3428.00000 19039.1089   455%     -  148s
H    0     0                    3954.0000000 17912.7077   353%     -  214s
H    0     0                    3960.0000000 17912.7077   352%     -  214s
H    0     0                    3995.0000000 17912.7077   348%     -  214s
H    0     0                    4098.0000000 17912.7077   337%     -  214s
H    0     0                    4386.0000000 17912.7077   308%     -  214s
H    0     0                    4615.0000000 17912.7077   288%     -  214s
H    0     0                    4739.0000000 17912.7077   278%     -  214s
H    0     0                    4858.0000000 17912.7077   269%     -  214s
H    0     0                    4873.0000000 17912.7077   268%     -  214s
H    0     0                    4909.0000000 17912.7077   265%     -  214s
H    0     0                    5045.0000000 17912.7077   255%     -  214s
H    0     0                    5051.0000000 17912.7077   255%     -  214s
     0     0 17912.7077    0  200 5051.00000 17912.7077   255%     -  214s
     0     0 16780.7841    0  200 5051.00000 16780.7841   232%     -  315s
     0     0 15837.3200    0  200 5051.00000 15837.3200   214%     -  439s
H    0     0                    5075.0000000 15002.3995   196%     -  596s
H    0     0                    5142.0000000 15002.3995   192%     -  596s
H    0     0                    5154.0000000 15002.3995   191%     -  596s
     0     0 15002.3995    0  200 5154.00000 15002.3995   191%     -  596s
H    0     0                    5158.0000000 14502.0766   181%     -  757s
H    0     0                    5254.0000000 14502.0766   176%     -  757s
H    0     0                    5284.0000000 14502.0766   174%     -  757s
H    0     0                    5291.0000000 14502.0766   174%     -  757s
H    0     0                    5294.0000000 14502.0766   174%     -  757s
H    0     0                    5299.0000000 14502.0766   174%     -  757s
     0     0 14502.0766    0  200 5299.00000 14502.0766   174%     -  757s
     0     0          -    0      5299.00000 14502.0766   174%     -  900s

Cutting planes:
  Gomory: 3
  MIR: 364
  Flow cover: 408
  RLT: 6474
  BQP: 7690

Explored 1 nodes (408393 simplex iterations) in 900.03 seconds (361.17 work units)
Thread count was 8 (of 8 available processors)

Solution count 10: 5299 5294 5291 ... 5051

Time limit reached
Best objective 5.299000000000e+03, best bound 1.450200000000e+04, gap 173.6743%
